experiment/data/hgs-res/Vrp-Set-A-n63/Vrp-Set-A-n63-hgs/0.hgs1.vrp
NAME : 0
COMMENT : CVRP Instance
TYPE : CVRP
DIMENSION : 63
EDGE_WEIGHT_TYPE : EUC_2D
CAPACITY : 100
NODE_COORD_SECTION
1	76.0	75.0
2	60.0	14.0
3	46.0	5.0
4	91.0	14.0
5	70.0	95.0
6	86.0	31.0
7	20.0	0.0
8	41.0	55.0
9	21.0	15.0
10	46.0	1.0
11	95.0	45.0
12	16.0	89.0
13	41.0	1.0
14	60.0	94.0
15	55.0	25.0
16	71.0	41.0
17	39.0	35.0
18	61.0	70.0
19	80.0	36.0
20	100.0	26.0
21	65.0	85.0
22	40.0	51.0
23	19.0	71.0
24	34.0	50.0
25	36.0	61.0
26	69.0	50.0
27	61.0	94.0
28	19.0	11.0
29	51.0	91.0
30	61.0	54.0
31	76.0	90.0
32	41.0	75.0
33	35.0	100.0
34	1.0	40.0
35	15.0	91.0
36	21.0	11.0
37	79.0	81.0
38	34.0	36.0
39	74.0	99.0
40	75.0	14.0
41	65.0	54.0
42	55.0	10.0
43	100.0	6.0
44	99.0	91.0
45	25.0	86.0
46	75.0	16.0
47	30.0	45.0
48	21.0	85.0
49	75.0	80.0
50	71.0	35.0
51	56.0	81.0
52	25.0	76.0
53	85.0	76.0
54	60.0	34.0
55	41.0	44.0
56	6.0	55.0
57	60.0	54.0
58	40.0	96.0
59	20.0	71.0
60	94.0	45.0
61	31.0	41.0
62	40.0	49.0
63	56.0	80.0
DEMAND_SECTION
1	0
2	11
3	20
4	26
5	17
6	5
7	17
8	1
9	15
10	16
11	22
12	2
13	22
14	25
15	20
16	20
17	21
18	26
19	12
20	5
21	11
22	5
23	21
24	17
25	12
26	12
27	15
28	21
29	12
30	2
31	17
32	16
33	15
34	26
35	12
36	22
37	16
38	21
39	16
40	2
41	6
42	2
43	6
44	10
45	11
46	1
47	63
48	10
49	21
50	7
51	1
52	6
53	26
54	17
55	10
56	25
57	25
58	25
59	16
60	5
61	22
62	17
63	6
DEPOT_SECTION
1
-1
EOF
