experiment/data/hgs-res/Vrp-Set-A-n63/Vrp-Set-A-n63-hgs/0.hgs1.tour
Route #1: 58 22 55 33 24
Route #2: 7 23 46 31
Route #3: 54 16 37 60 61 21
Route #4: 8 35 27 6 12 41
Route #5: 25 40 29 56 17
Route #6: 18 45 39 1 9 2 14 53
Route #7: 15 49 5 3 42 19 10 59
Route #8: 52 43 30 48
Route #9: 36 38 4 26 13 20
Route #10: 62 50 51 44 47 11 34 32 57 28
Cost 1313.46
